% demand
num_movements = 22;
loading_factor = [1700, 1850, 1700, 1400, 1200, 1900, 800, 1200, 1400, 900, 1450, 1300, 1250, 1000, 1000, 1700, 900, 1150, 1650, 1250, 1750, 1150];
pickup_time = [0, 1, 2, 2, 2, 2, 2, 4, 5, 6, 6, 6, 8, 8, 8, 8, 8, 8, 10, 11, 11, 11];
delivery_time = [2, 2, 3, 3, 3, 5, 3, 7, 7, 7, 7, 7, 10, 9, 12, 11, 10, 10, 12, 12, 12, 12];

% transporter definition
total_capacity = 7000;
num_decks = 3;
capacity = [3000, 1000, 3000];

% ways out of decks
num_ways_out = 1;
paths_out = array3d(decks, ways_out, decks, [
% ways out of deck d1
2, 3, 0, 

% ways out of deck d2
3, 0, 0, 

% ways out of deck d3
0, 0, 0,	

]);

